50
11571

35 905
596 962
370 379
767 535
462 788
178 244
7 376
624 572
477 969
310 731
951 281
879 908
656 365
746 9
681 175
500 847
746 849
856 502
584 287
54 7
89 786
117 900
730 621
150 575
948 899
590 37
533 660
188 559
851 114
965 877
183 187
882 821
90 206
491 377
995 916
751 777
837 833
361 666
527 191
468 806
208 896
716 195
317 553
421 759
920 612
208 374
22 981
695 249
285 539
441 145
